pRobustCbss/files/Mtsp.gtsp
NAME : mtspf
TYPE : AGTSP
DIMENSION : 27
GTSP_SETS : 9
EDGE_WEIGHT_TYPE : EXPLICIT
EDGE_WEIGHT_FORMAT : FULL_MATRIX
EDGE_WEIGHT_SECTION
0 0 99999 34 35 36 35 12 13 14 13 7 8 7 6 31 32 33 32 25 26 27 26 23 24 25 24 
99999 0 0 29 30 31 30 25 26 25 24 30 31 30 29 26 27 28 27 20 21 22 21 14 13 14 15 
0 99999 0 35 36 35 34 13 14 13 12 4 3 4 5 32 33 32 31 26 27 26 25 30 29 30 31 
0 0 0 0 0 0 0 26 25 24 25 39 38 37 38 7 6 7 8 13 12 11 12 43 42 41 42 
0 0 0 0 0 0 0 25 24 23 24 38 37 36 37 6 7 8 7 12 11 10 11 42 41 40 41 
0 0 0 0 0 0 0 24 23 24 25 37 36 37 38 7 8 9 8 11 10 11 12 41 40 41 42 
0 0 0 0 0 0 0 25 24 25 26 38 37 38 39 8 7 8 9 12 11 12 13 42 41 42 43 
0 0 0 24 25 24 23 0 0 0 0 17 16 15 16 21 22 21 20 15 16 15 14 23 22 23 24 
0 0 0 25 26 25 24 0 0 0 0 16 15 14 15 22 23 22 21 16 17 16 15 22 23 24 23 
0 0 0 24 25 26 25 0 0 0 0 15 14 15 16 21 22 23 22 15 16 17 16 23 24 25 24 
0 0 0 23 24 25 24 0 0 0 0 16 15 16 17 20 21 22 21 14 15 16 15 24 23 24 25 
0 0 0 37 38 37 36 15 16 15 14 0 0 0 0 34 35 34 33 28 29 28 27 28 27 28 29 
0 0 0 38 39 38 37 16 17 16 15 0 0 0 0 35 36 35 34 29 30 29 28 27 28 29 28 
0 0 0 37 38 39 38 15 16 17 16 0 0 0 0 34 35 36 35 28 29 30 29 28 29 30 29 
0 0 0 36 37 38 37 14 15 16 15 0 0 0 0 33 34 35 34 27 28 29 28 29 28 29 30 
0 0 0 9 8 7 8 23 22 21 22 36 35 34 35 0 0 0 0 14 13 12 13 40 39 38 39 
0 0 0 8 9 8 7 22 21 20 21 35 34 33 34 0 0 0 0 13 14 13 12 39 38 37 38 
0 0 0 7 8 7 6 21 20 21 22 34 33 34 35 0 0 0 0 12 13 12 11 38 37 38 39 
0 0 0 8 7 6 7 22 21 22 23 35 34 35 36 0 0 0 0 13 12 11 12 39 38 39 40 
0 0 0 11 12 11 10 17 16 15 16 30 29 28 29 12 11 12 13 0 0 0 0 34 33 32 33 
0 0 0 12 13 12 11 16 15 14 15 29 28 27 28 11 12 13 12 0 0 0 0 33 32 31 32 
0 0 0 11 12 13 12 15 14 15 16 28 27 28 29 12 13 14 13 0 0 0 0 32 31 32 33 
0 0 0 10 11 12 11 16 15 16 17 29 28 29 30 13 12 13 14 0 0 0 0 33 32 33 34 
0 0 0 41 42 41 40 25 24 23 24 30 29 28 29 38 39 38 37 32 33 32 31 0 0 0 0 
0 0 0 42 43 42 41 24 25 24 23 29 30 29 28 39 40 39 38 33 34 33 32 0 0 0 0 
0 0 0 41 42 43 42 23 24 23 22 28 29 28 27 38 39 40 39 32 33 34 33 0 0 0 0 
0 0 0 40 41 42 41 24 23 22 23 29 28 27 28 37 38 39 38 31 32 33 32 0 0 0 0 
GTSP_SET_SECTION
1 1 -1
2 2 -1
3 3 -1
4 4 5 6 7 -1
5 8 9 10 11 -1
6 12 13 14 15 -1
7 16 17 18 19 -1
8 20 21 22 23 -1
9 24 25 26 27 -1
