pRobustCbss/files/Mtsp.tsp
NAME : mtspf
COMMENT : file for mtspf test
TYPE : ATSP
DIMENSION : 4
EDGE_WEIGHT_TYPE : EXPLICIT
EDGE_WEIGHT_FORMAT : FULL_MATRIX
EDGE_WEIGHT_SECTION
0 6 99999 -99999 
0 0 6 3 
0 99999 0 9 
0 99999 -99999 0 
