pRobustCbss/files/Mtsp.tour
NAME : mtspf.-99999.tour
COMMENT : Length = -99999
COMMENT : Found by LKH-3 [Keld Helsgaun] Sat Jan 11 01:38:05 2025
TYPE : TOUR
DIMENSION : 4
TOUR_SECTION
1
4
3
2
-1
EOF
